(set-option :print-success false)
(set-logic QF_UF)
(declare-sort x68 0)
(declare-sort x1 0)
(declare-fun x89 () x1)
(declare-fun x131 () x1)
(declare-fun x38 () x1)
(declare-fun x3 () x1)
(declare-fun x58 (x1 x1) x1)
(declare-fun x139 () x1)
(declare-fun x136 (x1 x1) x1)
(assert (and (and (and (or (= x131 (x58 (x58 x89 x131) x89)) (or (= x131 (x58 (x58 x3 x131) x3)) (or (= x131 (x58 (x58 x131 x131) x131)) (or (= (x58 (x58 x38 x131) x38) x131) (= (x58 (x58 x139 x131) x139) x131))))) (and (or (or (= x38 (x58 (x58 x3 x38) x3)) (or (= x38 (x58 (x58 x131 x38) x131)) (or (= (x58 (x58 x139 x38) x139) x38) (= x38 (x58 (x58 x38 x38) x38))))) (= x38 (x58 (x58 x89 x38) x89))) (or (or (or (or (= x139 (x58 (x58 x139 x139) x139)) (= (x58 (x58 x38 x139) x38) x139)) (= x139 (x58 (x58 x131 x139) x131))) (= (x58 (x58 x3 x139) x3) x139)) (= x139 (x58 (x58 x89 x139) x89))))) (or (or (= (x58 (x58 x3 x3) x3) x3) (or (or (= x3 (x58 (x58 x139 x3) x139)) (= x3 (x58 (x58 x38 x3) x38))) (= x3 (x58 (x58 x131 x3) x131)))) (= (x58 (x58 x89 x3) x89) x3))) (or (= (x58 (x58 x89 x89) x89) x89) (or (or (= x89 (x58 (x58 x131 x89) x131)) (or (= (x58 (x58 x38 x89) x38) x89) (= x89 (x58 (x58 x139 x89) x139)))) (= x89 (x58 (x58 x3 x89) x3))))))
(assert (or (and (and (and (and (not (= x89 (x58 x38 (x58 x89 x38)))) (not (= (x58 x139 (x58 x89 x139)) x89))) (not (= (x58 x131 (x58 x89 x131)) x89))) (not (= x89 (x58 x3 (x58 x89 x3))))) (not (= (x58 x89 (x58 x89 x89)) x89))) (or (or (and (not (= (x58 x89 (x58 x131 x89)) x131)) (and (and (not (= (x58 x131 (x58 x131 x131)) x131)) (and (not (= (x58 x38 (x58 x131 x38)) x131)) (not (= x131 (x58 x139 (x58 x131 x139)))))) (not (= x131 (x58 x3 (x58 x131 x3)))))) (or (and (and (not (= (x58 x3 (x58 x38 x3)) x38)) (and (and (not (= (x58 x139 (x58 x38 x139)) x38)) (not (= x38 (x58 x38 (x58 x38 x38))))) (not (= x38 (x58 x131 (x58 x38 x131)))))) (not (= (x58 x89 (x58 x38 x89)) x38))) (and (and (and (and (not (= (x58 x139 (x58 x139 x139)) x139)) (not (= (x58 x38 (x58 x139 x38)) x139))) (not (= x139 (x58 x131 (x58 x139 x131))))) (not (= x139 (x58 x3 (x58 x139 x3))))) (not (= x139 (x58 x89 (x58 x139 x89))))))) (and (not (= x3 (x58 x89 (x58 x3 x89)))) (and (not (= (x58 x3 (x58 x3 x3)) x3)) (and (and (not (= x3 (x58 x139 (x58 x3 x139)))) (not (= (x58 x38 (x58 x3 x38)) x3))) (not (= x3 (x58 x131 (x58 x3 x131))))))))))
(assert (let ((x151 (x58 x3 x139)) (x46 (x58 x38 x38)) (x119 (x58 x89 x89)) (x66 (x58 x131 x3)) (x121 (x58 x89 x139)) (x99 (x58 x3 x89)) (x36 (x58 x3 x38)) (x116 (x58 x3 x131)) (x44 (x58 x38 x131)) (x146 (x58 x131 x38)) (x103 (x58 x89 x3)) (x78 (x58 x38 x3)) (x76 (x58 x38 x139)) (x83 (x58 x139 x38)) (x157 (x58 x139 x3)) (x118 (x58 x38 x89)) (x17 (x58 x89 x131)) (x98 (x58 x3 x3)) (x125 (x58 x89 x38)) (x24 (x58 x131 x131)) (x90 (x58 x139 x139)) (x101 (x58 x131 x139)) (x115 (x58 x139 x89)) (x81 (x58 x139 x131)) (x73 (x58 x131 x89))) (and (and (and (and (not (= x98 x103)) (and (not (= x66 x103)) (and (not (= x98 x66)) (and (not (= x157 x103)) (and (not (= x157 x98)) (and (not (= x66 x157)) (and (not (= x78 x103)) (and (and (not (= x157 x78)) (not (= x66 x78))) (not (= x98 x78)))))))))) (and (and (and (and (not (= x125 x146)) (and (and (and (and (not (= x83 x146)) (and (not (= x46 x125)) (and (not (= x46 x36)) (and (not (= x46 x146)) (not (= x83 x46)))))) (not (= x36 x83))) (not (= x83 x125))) (not (= x36 x146)))) (not (= x125 x36))) (and (and (and (not (= x101 x151)) (and (and (and (not (= x101 x90)) (and (and (and (not (= x76 x101)) (not (= x76 x90))) (not (= x151 x76))) (not (= x76 x121)))) (not (= x90 x151))) (not (= x90 x121)))) (not (= x121 x101))) (not (= x121 x151)))) (and (not (= x17 x116)) (and (and (and (not (= x81 x17)) (and (and (not (= x81 x24)) (and (and (not (= x116 x44)) (and (not (= x44 x81)) (not (= x44 x24)))) (not (= x17 x44)))) (not (= x81 x116)))) (not (= x116 x24))) (not (= x24 x17)))))) (and (and (and (and (not (= x119 x115)) (and (and (and (and (and (not (= x118 x73)) (not (= x115 x118))) (not (= x99 x118))) (not (= x118 x119))) (not (= x115 x73))) (not (= x115 x99)))) (not (= x73 x99))) (not (= x119 x73))) (not (= x119 x99)))) (and (and (and (and (not (= x116 x99)) (and (not (= x98 x116)) (and (and (not (= x98 x151)) (and (not (= x151 x116)) (and (not (= x36 x99)) (and (and (not (= x116 x36)) (not (= x151 x36))) (not (= x36 x98)))))) (not (= x99 x151))))) (not (= x99 x98))) (and (and (and (not (= x118 x78)) (and (and (not (= x78 x44)) (and (and (and (not (= x44 x76)) (and (not (= x118 x46)) (and (not (= x78 x46)) (and (not (= x44 x46)) (not (= x46 x76)))))) (not (= x76 x78))) (not (= x118 x76)))) (not (= x44 x118)))) (and (not (= x157 x115)) (and (not (= x115 x81)) (and (not (= x157 x81)) (and (not (= x115 x90)) (and (not (= x157 x90)) (and (not (= x90 x81)) (and (not (= x83 x115)) (and (and (not (= x83 x90)) (not (= x81 x83))) (not (= x83 x157))))))))))) (and (not (= x66 x73)) (and (not (= x73 x24)) (and (and (not (= x101 x73)) (and (not (= x101 x66)) (and (not (= x101 x24)) (and (and (not (= x66 x146)) (and (not (= x146 x101)) (not (= x24 x146)))) (not (= x146 x73)))))) (not (= x24 x66))))))) (and (and (and (not (= x103 x17)) (and (and (not (= x103 x121)) (and (and (not (= x125 x119)) (and (not (= x125 x103)) (and (not (= x17 x125)) (not (= x121 x125))))) (not (= x121 x17)))) (not (= x119 x121)))) (not (= x17 x119))) (not (= x119 x103)))))))
(assert (let ((x46 (= (x58 x38 x38) x38)) (x101 (= x131 (x58 x131 x131))) (x121 (= (x58 x89 x89) x89)) (x151 (= x3 (x58 x3 x3))) (x146 (= x139 (x58 x139 x139)))) (let ((x125 (not x101)) (x76 (not x151)) (x83 (not x46)) (x36 (not x146)) (x90 (not x121))) (or (or (and x121 x90) (or (or (and (= (x58 x89 x131) x89) x125) (or (and (= (x58 x89 x38) x89) x83) (and x36 (= (x58 x89 x139) x89)))) (and (= (x58 x89 x3) x89) x76))) (or (or (or (or (or (and x36 (= (x58 x3 x139) x3)) (and (= (x58 x3 x38) x3) x83)) (and x125 (= x3 (x58 x3 x131)))) (and x151 x76)) (and (= (x58 x3 x89) x3) x90)) (or (or (or (or (or (and x125 (= x38 (x58 x38 x131))) (or (and x46 x83) (and x36 (= (x58 x38 x139) x38)))) (and x76 (= (x58 x38 x3) x38))) (and x90 (= (x58 x38 x89) x38))) (or (or (or (or (and x36 x146) (and (= x139 (x58 x139 x38)) x83)) (and x125 (= x139 (x58 x139 x131)))) (and (= x139 (x58 x139 x3)) x76)) (and (= (x58 x139 x89) x139) x90))) (or (and (= x131 (x58 x131 x89)) x90) (or (and x76 (= x131 (x58 x131 x3))) (or (or (and x36 (= x131 (x58 x131 x139))) (and x83 (= x131 (x58 x131 x38)))) (and x101 x125))))))))))
(assert (not (and (and (= x38 (x58 x89 x3)) (and (and (= (x58 x89 x139) x89) (and (= (x58 x89 x38) x3) (and (and (= (x58 x3 x3) x3) (and (= x38 (x58 x3 x131)) (and (and (and (= x3 (x58 x131 x89)) (and (and (= x89 (x58 x131 x131)) (and (= (x58 x131 x139) x38) (and (= x139 (x58 x131 x38)) (and (and (and (and (and (and (and (= x89 (x58 x38 x3)) (and (and (= (x58 x38 x139) x3) (= x131 (x58 x38 x38))) (= (x58 x38 x131) x139))) (= (x58 x38 x89) x38)) (= (x58 x139 x38) x38)) (= x131 (x58 x139 x139))) (= x3 (x58 x139 x131))) (= x139 (x58 x139 x3))) (= (x58 x139 x89) x89))))) (= x131 (x58 x131 x3)))) (= (x58 x3 x38) x89)) (= (x58 x3 x139) x139)))) (= x131 (x58 x3 x89))))) (= (x58 x89 x131) x131))) (= x139 (x58 x89 x89)))))
(assert (let ((x36 (x58 x3 x3)) (x125 (x58 x89 x89)) (x146 (x58 x131 x131)) (x83 (x58 x139 x139)) (x46 (x58 x38 x38))) (or (and (not (= x89 x125)) (and (not (= x36 x89)) (and (and (not (= x46 x89)) (not (= x89 x83))) (not (= x89 x146))))) (or (or (and (not (= x131 x125)) (and (and (and (not (= x131 x46)) (not (= x83 x131))) (not (= x131 x146))) (not (= x131 x36)))) (or (and (not (= x125 x139)) (and (and (not (= x146 x139)) (and (not (= x83 x139)) (not (= x139 x46)))) (not (= x36 x139)))) (and (and (and (not (= x38 x146)) (and (not (= x38 x46)) (not (= x83 x38)))) (not (= x36 x38))) (not (= x38 x125))))) (and (not (= x3 x125)) (and (not (= x36 x3)) (and (not (= x3 x146)) (and (not (= x46 x3)) (not (= x3 x83))))))))))
(assert (not (and (= x38 (x58 x89 x89)) (and (and (= (x58 x89 x131) x131) (and (and (and (= x131 (x58 x3 x89)) (and (= x3 (x58 x3 x3)) (and (and (= (x58 x3 x139) x89) (and (= (x58 x3 x38) x38) (and (and (= x131 (x58 x131 x3)) (and (= (x58 x131 x131) x89) (and (= (x58 x131 x139) x38) (and (= (x58 x131 x38) x139) (and (and (and (and (and (and (and (and (= x3 (x58 x38 x131)) (and (= x139 (x58 x38 x139)) (= (x58 x38 x38) x131))) (= (x58 x38 x3) x38)) (= (x58 x38 x89) x89)) (= (x58 x139 x38) x3)) (= (x58 x139 x139) x131)) (= (x58 x139 x131) x38)) (= x89 (x58 x139 x3))) (= x139 (x58 x139 x89))))))) (= x3 (x58 x131 x89))))) (= (x58 x3 x131) x139)))) (= (x58 x89 x38) x89)) (= x3 (x58 x89 x139)))) (= x139 (x58 x89 x3))))))
(assert (and (and (= (x58 x131 x89) x3) (and (= (x58 x38 x38) x131) (= x139 (x58 x131 x38)))) (= x89 (x58 x131 x131))))
(assert (let ((x25 (x58 x139 x139)) (x23 (x58 x3 x139)) (x120 (x58 x3 x131)) (x122 (x58 x38 x139)) (x57 (x58 x38 x38)) (x45 (x58 x89 x3)) (x111 (x58 x131 x38)) (x142 (x58 x139 x3)) (x61 (x58 x131 x3)) (x22 (x58 x89 x38)) (x69 (x58 x131 x89)) (x94 (x58 x139 x89)) (x138 (x58 x89 x131)) (x145 (x58 x131 x131)) (x35 (x58 x89 x89)) (x70 (x58 x3 x89)) (x96 (x58 x38 x131)) (x64 (x58 x139 x131)) (x117 (x58 x3 x3)) (x40 (x58 x131 x139)) (x21 (x58 x38 x3)) (x93 (x58 x139 x38)) (x159 (x58 x89 x139)) (x130 (x58 x38 x89)) (x74 (x58 x3 x38))) (let ((x125 (not (= x38 x111))) (x24 (not (= x38 x142))) (x16 (not (= x22 x89))) (x133 (not (= x139 x64))) (x100 (not (= x93 x139))) (x42 (not (= x131 x138))) (x83 (not (= x93 x38))) (x73 (not (= x38 x45))) (x116 (not (= x120 x38))) (x75 (not (= x21 x3))) (x112 (not (= x25 x139))) (x158 (not (= x131 x35))) (x114 (not (= x138 x3))) (x109 (not (= x139 x130))) (x118 (not (= x138 x38))) (x59 (not (= x61 x139))) (x149 (not (= x139 x74))) (x115 (not (= x69 x38))) (x154 (not (= x64 x131))) (x54 (not (= x139 x57))) (x49 (not (= x131 x130))) (x95 (not (= x131 x120))) (x10 (not (= x96 x3))) (x153 (not (= x25 x3))) (x77 (not (= x45 x89))) (x81 (not (= x23 x38))) (x12 (not (= x139 x117))) (x51 (not (= x111 x131))) (x5 (not (= x145 x131))) (x62 (not (= x120 x3))) (x152 (not (= x57 x89))) (x101 (not (= x64 x38))) (x46 (not (= x57 x38))) (x157 (not (= x38 x22))) (x63 (not (= x23 x131))) (x150 (not (= x131 x94))) (x126 (not (= x131 x69))) (x4 (not (= x139 x120))) (x6 (not (= x57 x131))) (x97 (not (= x25 x89))) (x60 (not (= x93 x131))) (x104 (not (= x57 x3))) (x44 (not (= x38 x21))) (x127 (not (= x21 x131))) (x20 (not (= x3 x159))) (x123 (not (= x74 x89))) (x151 (not (= x145 x38))) (x72 (not (= x3 x94))) (x34 (not (= x159 x139))) (x8 (not (= x35 x139))) (x13 (not (= x131 x122))) (x132 (not (= x70 x3))) (x37 (not (= x130 x89))) (x110 (not (= x64 x3))) (x119 (not (= x38 x35))) (x82 (not (= x70 x131))) (x91 (not (= x96 x89))) (x48 (not (= x131 x117))) (x55 (not (= x23 x139))) (x85 (not (= x131 x40))) (x129 (not (= x139 x22))) (x41 (not (= x139 x142))) (x80 (not (= x3 x40))) (x135 (not (= x89 x93))) (x113 (not (= x131 x22))) (x27 (not (= x40 x139))) (x98 (not (= x38 x159))) (x140 (not (= x21 x89))) (x78 (not (= x38 x117))) (x107 (not (= x131 x25))) (x56 (not (= x89 x94))) (x155 (not (= x3 x145))) (x156 (not (= x89 x64))) (x32 (not (= x40 x89))) (x65 (not (= x23 x89))) (x87 (not (= x89 x35))) (x134 (not (= x89 x122))) (x31 (not (= x3 x35))) (x76 (not (= x96 x38))) (x15 (not (= x3 x45))) (x86 (not (= x74 x3))) (x28 (not (= x3 x61))) (x102 (not (= x159 x89))) (x26 (not (= x45 x131))) (x50 (not (= x89 x111))) (x43 (not (= x22 x3))) (x7 (not (= x139 x69))) (x52 (not (= x142 x3))) (x141 (not (= x69 x89))) (x92 (not (= x139 x145))) (x9 (not (= x3 x122))) (x106 (not (= x139 x94))) (x66 (not (= x38 x130))) (x143 (not (= x96 x131))) (x148 (not (= x131 x159))) (x105 (not (= x96 x139))) (x71 (not (= x21 x139))) (x53 (not (= x117 x3))) (x124 (not (= x89 x138))) (x17 (not (= x61 x38))) (x19 (not (= x45 x139))) (x14 (not (= x131 x61))) (x29 (not (= x111 x139))) (x144 (not (= x131 x74))) (x18 (not (= x120 x89))) (x30 (not (= x130 x3))) (x121 (not (= x38 x74))) (x99 (not (= x38 x70))) (x88 (not (= x3 x23))) (x47 (not (= x89 x145))) (x84 (not (= x139 x138))) (x147 (not (= x142 x89))) (x103 (not (= x38 x94))) (x11 (not (= x139 x122))) (x2 (not (= x142 x131))) (x146 (not (= x38 x122))) (x79 (not (= x69 x3))) (x39 (not (= x139 x70))) (x90 (not (= x38 x40))) (x36 (not (= x38 x25))) (x137 (not (= x89 x117))) (x128 (not (= x70 x89))) (x67 (not (= x3 x111))) (x33 (not (= x61 x89))) (x108 (not (= x3 x93)))) (or (and (and (and (or x77 x128) (and (or x124 x141) (and (or x16 x37) (or x56 x102)))) (or x87 x87)) (and (and (and (and (or x33 x18) (and (and (or x50 x91) (or x32 x156)) (or x47 x47))) (or x124 x141)) (and (and (or x16 x37) (and (and (and (or x152 x152) (or x134 x135)) (or x50 x91)) (or x123 x140))) (and (or x56 x102) (and (or x147 x65) (and (and (or x135 x134) (or x97 x97)) (or x156 x32)))))) (and (or x77 x128) (and (or x137 x137) (and (and (or x147 x65) (or x140 x123)) (or x18 x33)))))) (or (or (or (and (and (and (or x99 x73) (and (and (or x116 x17) (and (or x81 x24) (or x44 x121))) (or x78 x78))) (and (and (and (or x66 x157) (and (and (and (or x46 x46) (or x83 x146)) (or x125 x76)) (or x121 x44))) (and (and (and (or x90 x101) (and (or x36 x36) (or x146 x83))) (or x24 x81)) (or x98 x103))) (and (and (or x116 x17) (and (and (or x90 x101) (or x125 x76)) (or x151 x151))) (or x115 x118)))) (and (or x119 x119) (and (and (or x115 x118) (and (or x157 x66) (or x98 x103))) (or x99 x73)))) (and (and (and (and (and (and (or x149 x71) (and (and (or x54 x54) (or x100 x11)) (or x105 x29))) (or x109 x129)) (and (and (and (and (or x112 x112) (or x11 x100)) (or x27 x133)) (or x41 x55)) (or x34 x106))) (and (or x84 x7) (and (and (or x92 x92) (and (or x29 x105) (or x27 x133))) (or x4 x59)))) (and (or x39 x19) (and (and (or x4 x59) (and (or x41 x55) (or x149 x71))) (or x12 x12)))) (and (or x8 x8) (and (and (or x84 x7) (and (or x34 x106) (or x129 x109))) (or x39 x19))))) (and (and (and (or x26 x82) (and (or x126 x42) (and (or x49 x113) (or x148 x150)))) (or x158 x158)) (and (and (and (or x126 x42) (and (and (and (or x154 x85) (or x51 x143)) (or x5 x5)) (or x14 x95))) (and (and (or x113 x49) (and (and (or x143 x51) (and (or x60 x13) (or x6 x6))) (or x127 x144))) (and (or x150 x148) (and (or x2 x63) (and (and (or x107 x107) (or x60 x13)) (or x154 x85)))))) (and (or x26 x82) (and (and (and (or x127 x144) (or x2 x63)) (or x95 x14)) (or x48 x48)))))) (and (and (and (or x15 x132) (and (or x53 x53) (and (or x28 x62) (and (or x52 x88) (or x75 x86))))) (and (and (and (and (or x88 x52) (and (and (or x108 x9) (or x153 x153)) (or x110 x80))) (or x72 x20)) (and (and (or x86 x75) (and (and (or x9 x108) (or x104 x104)) (or x67 x10))) (or x43 x30))) (and (or x114 x79) (and (or x62 x28) (and (or x155 x155) (and (or x10 x67) (or x80 x110))))))) (and (and (and (or x79 x114) (and (or x72 x20) (or x30 x43))) (or x132 x15)) (or x31 x31))))))))
(assert (or (= (x58 x89 x89) x89) (or (= (x58 x3 x3) x3) (or (= (x58 x131 x131) x131) (or (= x139 (x58 x139 x139)) (= (x58 x38 x38) x38))))))
(assert (or (and (not (= x89 (x58 x89 x89))) (and (and (and (not (= x139 (x58 x139 x89))) (not (= (x58 x38 x89) x38))) (not (= x131 (x58 x131 x89)))) (not (= (x58 x3 x89) x3)))) (or (and (and (and (and (not (= x139 (x58 x139 x3))) (not (= x38 (x58 x38 x3)))) (not (= x131 (x58 x131 x3)))) (not (= x3 (x58 x3 x3)))) (not (= (x58 x89 x3) x89))) (or (or (and (not (= x89 (x58 x89 x38))) (and (and (not (= (x58 x131 x38) x131)) (and (not (= x38 (x58 x38 x38))) (not (= (x58 x139 x38) x139)))) (not (= (x58 x3 x38) x3)))) (and (not (= (x58 x89 x139) x89)) (and (and (not (= x131 (x58 x131 x139))) (and (not (= x38 (x58 x38 x139))) (not (= x139 (x58 x139 x139))))) (not (= x3 (x58 x3 x139)))))) (and (not (= x89 (x58 x89 x131))) (and (and (not (= x131 (x58 x131 x131))) (and (not (= (x58 x139 x131) x139)) (not (= (x58 x38 x131) x38)))) (not (= (x58 x3 x131) x3))))))))
(assert (let ((x118 (x58 x38 x89)) (x83 (x58 x139 x38)) (x103 (x58 x89 x3)) (x36 (x58 x3 x38)) (x73 (x58 x131 x89)) (x101 (x58 x131 x139)) (x146 (x58 x131 x38)) (x151 (x58 x3 x139)) (x121 (x58 x89 x139)) (x115 (x58 x139 x89)) (x81 (x58 x139 x131)) (x157 (x58 x139 x3)) (x66 (x58 x131 x3)) (x24 (x58 x131 x131)) (x44 (x58 x38 x131)) (x90 (x58 x139 x139)) (x99 (x58 x3 x89)) (x119 (x58 x89 x89)) (x46 (x58 x38 x38)) (x116 (x58 x3 x131)) (x78 (x58 x38 x3)) (x98 (x58 x3 x3)) (x17 (x58 x89 x131)) (x76 (x58 x38 x139)) (x125 (x58 x89 x38))) (and (or (= (x58 x119 x119) x89) (or (or (or (= x139 (x58 x115 x115)) (= (x58 x118 x118) x38)) (= x131 (x58 x73 x73))) (= x3 (x58 x99 x99)))) (and (and (and (or (= x89 (x58 x125 x125)) (or (= (x58 x36 x36) x3) (or (or (= (x58 x46 x46) x38) (= x139 (x58 x83 x83))) (= (x58 x146 x146) x131)))) (or (= (x58 x121 x121) x89) (or (or (= x131 (x58 x101 x101)) (or (= x38 (x58 x76 x76)) (= x139 (x58 x90 x90)))) (= x3 (x58 x151 x151))))) (or (= x89 (x58 x17 x17)) (or (= (x58 x116 x116) x3) (or (= x131 (x58 x24 x24)) (or (= x38 (x58 x44 x44)) (= x139 (x58 x81 x81))))))) (or (or (= (x58 x98 x98) x3) (or (or (= (x58 x78 x78) x38) (= (x58 x157 x157) x139)) (= (x58 x66 x66) x131))) (= x89 (x58 x103 x103)))))))
(assert (let ((x81 (x58 x131 x139)) (x66 (x58 x3 x131)) (x101 (x58 x139 x131)) (x157 (x58 x3 x139)) (x103 (x58 x3 x89)) (x125 (x58 x38 x89)) (x121 (x58 x139 x89)) (x24 (x58 x131 x131)) (x118 (x58 x89 x38)) (x44 (x58 x131 x38)) (x36 (x58 x38 x3)) (x116 (x58 x131 x3)) (x98 (x58 x3 x3)) (x115 (x58 x89 x139)) (x78 (x58 x3 x38)) (x99 (x58 x89 x3)) (x17 (x58 x131 x89)) (x46 (x58 x38 x38)) (x76 (x58 x139 x38)) (x151 (x58 x139 x3)) (x73 (x58 x89 x131)) (x146 (x58 x38 x131)) (x90 (x58 x139 x139)) (x83 (x58 x38 x139)) (x119 (x58 x89 x89))) (and (and (and (and (and (and (and (and (or (or (or (= x46 x131) (or (= x46 x139) (= x46 x38))) (= x3 x46)) (= x46 x89)) (or (= x83 x89) (or (= x3 x83) (or (= x83 x131) (or (= x83 x38) (= x139 x83)))))) (or (or (or (= x146 x131) (or (= x146 x139) (= x38 x146))) (= x3 x146)) (= x89 x146))) (or (or (or (= x131 x36) (or (= x36 x38) (= x36 x139))) (= x36 x3)) (= x36 x89))) (or (= x125 x89) (or (or (= x131 x125) (or (= x139 x125) (= x38 x125))) (= x125 x3)))) (and (or (= x121 x89) (or (= x3 x121) (or (or (= x121 x139) (= x121 x38)) (= x131 x121)))) (and (and (or (or (= x3 x101) (or (= x131 x101) (or (= x101 x139) (= x38 x101)))) (= x89 x101)) (and (or (= x89 x90) (or (= x3 x90) (or (= x131 x90) (or (= x90 x38) (= x90 x139))))) (or (= x76 x89) (or (= x76 x3) (or (= x76 x131) (or (= x76 x38) (= x139 x76))))))) (or (or (= x3 x151) (or (= x131 x151) (or (= x139 x151) (= x38 x151)))) (= x151 x89))))) (and (or (or (or (= x131 x17) (or (= x38 x17) (= x17 x139))) (= x17 x3)) (= x89 x17)) (and (or (= x116 x89) (or (= x3 x116) (or (= x116 x131) (or (= x139 x116) (= x38 x116))))) (and (or (or (= x3 x24) (or (or (= x24 x139) (= x38 x24)) (= x24 x131))) (= x24 x89)) (and (or (or (or (or (= x81 x139) (= x81 x38)) (= x131 x81)) (= x81 x3)) (= x89 x81)) (or (= x89 x44) (or (or (= x44 x131) (or (= x139 x44) (= x44 x38))) (= x3 x44)))))))) (and (and (and (and (or (or (= x3 x157) (or (= x131 x157) (or (= x157 x38) (= x139 x157)))) (= x157 x89)) (or (or (= x3 x78) (or (= x78 x131) (or (= x78 x38) (= x78 x139)))) (= x89 x78))) (or (= x66 x89) (or (= x66 x3) (or (or (= x66 x139) (= x38 x66)) (= x131 x66))))) (or (= x98 x89) (or (or (or (= x98 x139) (= x98 x38)) (= x131 x98)) (= x98 x3)))) (or (= x103 x89) (or (or (= x131 x103) (or (= x103 x38) (= x139 x103))) (= x3 x103))))) (and (and (and (or (or (or (= x131 x73) (or (= x139 x73) (= x38 x73))) (= x3 x73)) (= x89 x73)) (and (or (or (= x3 x118) (or (= x118 x131) (or (= x118 x38) (= x118 x139)))) (= x89 x118)) (or (or (= x3 x115) (or (or (= x115 x38) (= x139 x115)) (= x131 x115))) (= x89 x115)))) (or (= x99 x89) (or (= x3 x99) (or (= x99 x131) (or (= x139 x99) (= x38 x99)))))) (or (= x119 x89) (or (or (or (= x139 x119) (= x119 x38)) (= x119 x131)) (= x3 x119)))))))
(assert (and (and (and (and (or (or (= (x58 (x58 x3 x38) x38) x3) (or (= (x58 (x58 x131 x38) x38) x131) (or (= x38 (x58 (x58 x38 x38) x38)) (= (x58 (x58 x139 x38) x38) x139)))) (= x89 (x58 (x58 x89 x38) x38))) (or (or (or (= x131 (x58 (x58 x131 x139) x139)) (or (= (x58 (x58 x139 x139) x139) x139) (= x38 (x58 (x58 x38 x139) x139)))) (= (x58 (x58 x3 x139) x139) x3)) (= (x58 (x58 x89 x139) x139) x89))) (or (or (= x3 (x58 (x58 x3 x131) x131)) (or (= (x58 (x58 x131 x131) x131) x131) (or (= x139 (x58 (x58 x139 x131) x131)) (= x38 (x58 (x58 x38 x131) x131))))) (= (x58 (x58 x89 x131) x131) x89))) (or (= (x58 (x58 x89 x3) x3) x89) (or (or (= (x58 (x58 x131 x3) x3) x131) (or (= (x58 (x58 x139 x3) x3) x139) (= x38 (x58 (x58 x38 x3) x3)))) (= x3 (x58 (x58 x3 x3) x3))))) (or (or (or (= (x58 (x58 x131 x89) x89) x131) (or (= x139 (x58 (x58 x139 x89) x89)) (= x38 (x58 (x58 x38 x89) x89)))) (= x3 (x58 (x58 x3 x89) x89))) (= (x58 (x58 x89 x89) x89) x89))))
(assert (or (and (and (and (and (not (= x139 (x58 x89 (x58 x89 x139)))) (not (= x38 (x58 x89 (x58 x89 x38))))) (not (= (x58 x89 (x58 x89 x131)) x131))) (not (= (x58 x89 (x58 x89 x3)) x3))) (not (= x89 (x58 x89 (x58 x89 x89))))) (or (and (not (= (x58 x3 (x58 x3 x89)) x89)) (and (and (not (= x131 (x58 x3 (x58 x3 x131)))) (and (not (= (x58 x3 (x58 x3 x38)) x38)) (not (= (x58 x3 (x58 x3 x139)) x139)))) (not (= (x58 x3 (x58 x3 x3)) x3)))) (or (and (and (and (and (not (= x139 (x58 x131 (x58 x131 x139)))) (not (= (x58 x131 (x58 x131 x38)) x38))) (not (= x131 (x58 x131 (x58 x131 x131))))) (not (= (x58 x131 (x58 x131 x3)) x3))) (not (= x89 (x58 x131 (x58 x131 x89))))) (or (and (and (and (and (not (= x38 (x58 x139 (x58 x139 x38)))) (not (= (x58 x139 (x58 x139 x139)) x139))) (not (= (x58 x139 (x58 x139 x131)) x131))) (not (= x3 (x58 x139 (x58 x139 x3))))) (not (= x89 (x58 x139 (x58 x139 x89))))) (and (and (not (= (x58 x38 (x58 x38 x3)) x3)) (and (and (not (= (x58 x38 (x58 x38 x38)) x38)) (not (= x139 (x58 x38 (x58 x38 x139))))) (not (= x131 (x58 x38 (x58 x38 x131)))))) (not (= (x58 x38 (x58 x38 x89)) x89))))))))
(assert (let ((x36 (x58 (x58 x3 x3) x3)) (x46 (x58 (x58 x38 x38) x38)) (x146 (x58 (x58 x131 x131) x131)) (x83 (x58 (x58 x139 x139) x139)) (x125 (x58 (x58 x89 x89) x89))) (and (or (= x89 x125) (or (= x89 x36) (or (or (= x89 x46) (= x83 x89)) (= x146 x89)))) (and (and (or (or (or (= x131 x146) (or (= x46 x131) (= x131 x83))) (= x36 x131)) (= x131 x125)) (and (or (or (= x36 x38) (or (or (= x38 x83) (= x38 x46)) (= x38 x146))) (= x125 x38)) (or (= x125 x139) (or (= x36 x139) (or (= x146 x139) (or (= x139 x83) (= x139 x46))))))) (or (or (or (or (= x3 x46) (= x83 x3)) (= x146 x3)) (= x36 x3)) (= x3 x125))))))
(assert (let ((x115 (x58 x139 x89)) (x54 (x58 x89 x139)) (x154 (x58 x89 x3)) (x30 (x58 x89 x89)) (x125 (x58 x38 x3)) (x76 (x58 x38 x89)) (x94 (x58 x131 x131)) (x151 (x58 x131 x38)) (x146 (x58 x38 x139)) (x103 (x58 x139 x131)) (x83 (x58 x38 x38)) (x118 (x58 x139 x3)) (x36 (x58 x38 x131)) (x121 (x58 x3 x38)) (x60 (x58 x3 x3)) (x13 (x58 x3 x89)) (x145 (x58 x3 x131)) (x92 (x58 x89 x131)) (x29 (x58 x131 x89)) (x101 (x58 x139 x38)) (x44 (x58 x89 x38)) (x57 (x58 x3 x139)) (x98 (x58 x139 x139)) (x159 (x58 x131 x3)) (x119 (x58 x131 x139))) (let ((x74 (= x3 x98)) (x9 (= x89 x159)) (x59 (= x3 x94)) (x22 (= x89 x146)) (x78 (= x146 x38)) (x16 (= x44 x89)) (x97 (= x115 x131)) (x64 (= x38 x103)) (x61 (= x151 x131)) (x34 (= x57 x38)) (x147 (= x115 x3)) (x15 (= x139 x30)) (x88 (= x38 x13)) (x50 (= x29 x131)) (x35 (= x121 x139)) (x4 (= x3 x103)) (x42 (= x3 x159)) (x123 (= x3 x92)) (x153 (= x89 x60)) (x91 (= x131 x13)) (x85 (= x139 x60)) (x133 (= x139 x94)) (x108 (= x89 x118)) (x18 (= x3 x29)) (x27 (= x103 x139)) (x143 (= x159 x139)) (x43 (= x139 x154)) (x72 (= x139 x115)) (x2 (= x118 x131)) (x99 (= x98 x139)) (x84 (= x125 x38)) (x75 (= x29 x38)) (x96 (= x131 x98)) (x150 (= x118 x3)) (x113 (= x57 x3)) (x65 (= x76 x3)) (x12 (= x119 x89)) (x106 (= x38 x145)) (x112 (= x36 x38)) (x53 (= x139 x92)) (x19 (= x159 x38)) (x79 (= x13 x139)) (x46 (= x38 x83)) (x28 (= x54 x139)) (x128 (= x13 x89)) (x20 (= x76 x139)) (x52 (= x38 x30)) (x11 (= x38 x151)) (x55 (= x3 x119)) (x37 (= x54 x89)) (x45 (= x103 x89)) (x114 (= x139 x29)) (x69 (= x131 x36)) (x129 (= x94 x89)) (x127 (= x131 x145)) (x14 (= x60 x131)) (x126 (= x3 x60)) (x17 (= x101 x38)) (x148 (= x3 x125)) (x95 (= x159 x131)) (x157 (= x98 x38)) (x80 (= x92 x38)) (x138 (= x103 x131)) (x62 (= x44 x139)) (x25 (= x119 x38)) (x93 (= x146 x131)) (x39 (= x38 x60)) (x144 (= x57 x131)) (x81 (= x83 x131)) (x141 (= x115 x89)) (x70 (= x36 x89)) (x137 (= x3 x30)) (x24 (= x3 x83)) (x63 (= x125 x131)) (x67 (= x38 x44)) (x48 (= x121 x3)) (x31 (= x131 x54)) (x110 (= x154 x38)) (x73 (= x139 x146)) (x7 (= x38 x118)) (x8 (= x57 x139)) (x49 (= x3 x145)) (x122 (= x131 x101)) (x5 (= x131 x121)) (x47 (= x54 x3)) (x158 (= x145 x89)) (x116 (= x89 x83)) (x10 (= x38 x54)) (x26 (= x89 x121)) (x135 (= x154 x131)) (x77 (= x89 x29)) (x156 (= x3 x44)) (x23 (= x139 x119)) (x134 (= x131 x76)) (x142 (= x151 x139)) (x40 (= x94 x38)) (x124 (= x76 x89)) (x105 (= x36 x139)) (x71 (= x151 x3)) (x90 (= x139 x83)) (x86 (= x115 x38)) (x41 (= x36 x3)) (x130 (= x89 x101)) (x155 (= x38 x76)) (x149 (= x94 x131)) (x82 (= x89 x57)) (x6 (= x139 x145)) (x107 (= x125 x139)) (x140 (= x154 x3)) (x87 (= x89 x30)) (x56 (= x89 x154)) (x32 (= x30 x131)) (x111 (= x3 x101)) (x132 (= x131 x44)) (x152 (= x131 x92)) (x33 (= x3 x13)) (x66 (= x139 x101)) (x120 (= x119 x131)) (x100 (= x98 x89)) (x102 (= x89 x92)) (x117 (= x151 x89)) (x109 (= x38 x121)) (x104 (= x125 x89)) (x51 (= x118 x139)) (x21 (= x146 x3))) (and (and (and (and (and (and (and (or (or (or x71 (or x111 x24)) x48) x156) (or (or (or x41 (or x21 x24)) x148) x65)) (and (and (or (or x63 (or (or x93 x81) x69)) x134) (or (or x5 (or (or x81 x122) x61)) x132)) (and (and (or x20 (or x107 (or (or x90 x73) x105))) (or (or (or (or x90 x66) x142) x35) x62)) (and (or (or x109 (or x11 (or x17 x46))) x67) (or (or x84 (or (or x78 x46) x112)) x155))))) (and (or (or (or x70 (or x116 x22)) x104) x124) (or (or x26 (or (or x130 x116) x117)) x16))) (and (and (or (or x108 (or x45 (or x100 x130))) x141) (or (or (or (or x22 x100) x12) x82) x37)) (and (and (and (or (or x144 (or (or x96 x93) x120)) x31) (or (or (or (or x96 x122) x138) x2) x97)) (and (and (or (or (or x25 (or x78 x157)) x34) x10) (or (or (or x64 (or x17 x157)) x7) x86)) (and (or x72 (or x51 (or x27 (or x99 x66)))) (or x28 (or (or x23 (or x99 x73)) x8))))) (and (or x147 (or x150 (or (or x111 x74) x4))) (or x47 (or (or (or x74 x21) x55) x113)))))) (and (and (or (or (or x129 (or x45 x70)) x158) x102) (or (or x9 (or (or x12 x117) x129)) x77)) (and (and (and (and (or (or x6 (or (or x105 x27) x133)) x53) (or (or (or x133 (or x142 x23)) x143) x114)) (and (or x80 (or (or (or x112 x64) x40) x106)) (or (or (or (or x25 x11) x40) x19) x75))) (and (or x50 (or (or (or x120 x61) x149) x95)) (or (or x127 (or (or x69 x138) x149)) x152))) (and (or (or (or (or x41 x4) x59) x49) x123) (or (or (or x59 (or x71 x55)) x42) x18))))) (and (and (or (or (or x158 (or x82 x26)) x153) x128) (or x56 (or x153 (or (or x104 x108) x9)))) (and (and (and (or x91 (or x14 (or x127 (or x144 x5)))) (or (or (or x95 (or x63 x2)) x14) x135)) (and (and (or x79 (or x85 (or (or x35 x8) x6))) (or (or x85 (or x143 (or x51 x107))) x43)) (and (or x88 (or x39 (or x106 (or x109 x34)))) (or x110 (or (or x19 (or x84 x7)) x39))))) (and (or (or (or x49 (or x113 x48)) x126) x33) (or x140 (or x126 (or x42 (or x148 x150)))))))) (and (and (or x87 (or (or (or x141 x124) x77) x128)) (or x87 (or x56 (or (or x16 x37) x102)))) (and (and (or (or (or (or x156 x47) x123) x140) x137) (or x137 (or x33 (or (or x65 x147) x18)))) (and (and (or x32 (or (or (or x97 x134) x50) x91)) (or (or (or (or x31 x132) x152) x135) x32)) (and (and (or x52 (or (or (or x155 x86) x75) x88)) (or x52 (or (or x80 (or x10 x67)) x110))) (and (or (or (or (or x72 x20) x114) x79) x15) (or (or x43 (or x53 (or x62 x28))) x15))))))))))
(assert (and (and (not (= x89 x131)) (and (not (= x3 x131)) (and (and (not (= x139 x3)) (and (and (not (= x38 x89)) (and (and (not (= x131 x38)) (not (= x38 x139))) (not (= x3 x38)))) (not (= x131 x139)))) (not (= x89 x139))))) (not (= x89 x3))))
(check-sat)
(exit)
